sat
(:max-memory          18.18
 :memory              18.02
 :nlsat-conflicts     2
 :nlsat-decisions     1
 :nlsat-learned-added 2
 :nlsat-propagations  13
 :nlsat-stages        5
 :num-allocs          7405
 :rlimit-count        6164
 :time                0.01
 :total-time          0.02)
